p edge 85 938 70
e 1 5
e 1 9
e 1 10
e 1 11
e 1 12
e 1 13
e 1 15
e 1 30
e 1 31
e 1 35
e 1 39
e 1 41
e 1 48
e 1 50
e 1 55
e 1 56
e 1 60
e 1 62
e 1 64
e 1 66
e 1 70
e 1 72
e 1 77
e 1 80
e 1 82
e 2 6
e 2 12
e 2 13
e 2 15
e 2 16
e 2 27
e 2 28
e 2 30
e 2 34
e 2 36
e 2 37
e 2 39
e 2 41
e 2 43
e 2 45
e 2 47
e 2 52
e 2 56
e 2 62
e 2 68
e 2 69
e 2 71
e 2 72
e 2 73
e 2 79
e 2 80
e 2 83
e 2 84
e 2 85
e 3 6
e 3 7
e 3 16
e 3 17
e 3 26
e 3 27
e 3 28
e 3 44
e 3 45
e 3 46
e 3 47
e 3 48
e 3 49
e 3 51
e 3 58
e 3 65
e 3 68
e 3 71
e 3 77
e 4 9
e 4 14
e 4 20
e 4 23
e 4 30
e 4 32
e 4 42
e 4 48
e 4 50
e 4 53
e 4 55
e 4 57
e 4 65
e 4 66
e 4 67
e 4 69
e 4 73
e 4 81
e 5 6
e 5 19
e 5 23
e 5 29
e 5 31
e 5 38
e 5 45
e 5 52
e 5 57
e 5 60
e 5 61
e 5 62
e 5 64
e 5 77
e 6 9
e 6 10
e 6 18
e 6 24
e 6 27
e 6 30
e 6 31
e 6 36
e 6 38
e 6 39
e 6 40
e 6 41
e 6 46
e 6 47
e 6 58
e 6 67
e 6 70
e 6 75
e 6 78
e 6 85
e 7 8
e 7 14
e 7 20
e 7 21
e 7 22
e 7 23
e 7 24
e 7 41
e 7 43
e 7 44
e 7 45
e 7 53
e 7 61
e 7 66
e 7 67
e 7 70
e 7 72
e 7 77
e 7 84
e 8 18
e 8 23
e 8 25
e 8 29
e 8 30
e 8 31
e 8 37
e 8 40
e 8 50
e 8 51
e 8 52
e 8 57
e 8 60
e 8 64
e 8 65
e 8 67
e 8 74
e 8 76
e 8 77
e 8 78
e 8 83
e 9 13
e 9 16
e 9 27
e 9 28
e 9 32
e 9 41
e 9 43
e 9 57
e 9 59
e 9 61
e 9 64
e 9 65
e 9 66
e 9 73
e 9 81
e 9 82
e 10 13
e 10 17
e 10 21
e 10 25
e 10 31
e 10 40
e 10 54
e 10 56
e 10 60
e 10 81
e 11 12
e 11 16
e 11 20
e 11 24
e 11 25
e 11 28
e 11 34
e 11 37
e 11 40
e 11 44
e 11 50
e 11 53
e 11 55
e 11 57
e 11 61
e 11 62
e 11 63
e 11 64
e 11 74
e 11 75
e 11 77
e 11 79
e 11 80
e 11 81
e 11 82
e 11 84
e 11 85
e 12 19
e 12 21
e 12 23
e 12 30
e 12 34
e 12 38
e 12 43
e 12 46
e 12 51
e 12 55
e 12 56
e 12 57
e 12 59
e 12 66
e 12 69
e 12 73
e 12 75
e 12 82
e 12 85
e 13 15
e 13 16
e 13 17
e 13 19
e 13 23
e 13 31
e 13 33
e 13 38
e 13 41
e 13 42
e 13 44
e 13 47
e 13 49
e 13 50
e 13 52
e 13 60
e 13 64
e 13 66
e 13 68
e 13 71
e 13 73
e 13 76
e 13 78
e 13 79
e 13 80
e 13 81
e 14 15
e 14 19
e 14 27
e 14 39
e 14 42
e 14 44
e 14 60
e 14 61
e 14 63
e 14 64
e 14 66
e 14 73
e 14 76
e 14 79
e 14 81
e 14 83
e 14 84
e 15 17
e 15 22
e 15 23
e 15 24
e 15 30
e 15 31
e 15 32
e 15 34
e 15 35
e 15 36
e 15 40
e 15 50
e 15 57
e 15 61
e 15 70
e 15 74
e 15 75
e 15 77
e 15 78
e 15 82
e 15 85
e 16 21
e 16 22
e 16 24
e 16 25
e 16 26
e 16 31
e 16 32
e 16 38
e 16 39
e 16 41
e 16 42
e 16 46
e 16 58
e 16 62
e 16 63
e 16 64
e 16 66
e 16 68
e 16 70
e 16 72
e 16 76
e 16 78
e 16 79
e 16 84
e 17 19
e 17 23
e 17 32
e 17 34
e 17 36
e 17 53
e 17 60
e 17 65
e 17 69
e 17 75
e 17 76
e 17 82
e 17 83
e 18 20
e 18 24
e 18 25
e 18 30
e 18 37
e 18 39
e 18 40
e 18 46
e 18 50
e 18 57
e 18 60
e 18 63
e 18 64
e 18 65
e 18 77
e 18 81
e 18 82
e 18 84
e 19 20
e 19 22
e 19 27
e 19 30
e 19 33
e 19 50
e 19 51
e 19 53
e 19 54
e 19 55
e 19 61
e 19 69
e 19 76
e 19 80
e 19 81
e 20 31
e 20 33
e 20 35
e 20 37
e 20 39
e 20 41
e 20 47
e 20 49
e 20 51
e 20 56
e 20 60
e 20 67
e 20 73
e 20 77
e 20 82
e 21 23
e 21 26
e 21 28
e 21 30
e 21 32
e 21 36
e 21 38
e 21 41
e 21 44
e 21 47
e 21 49
e 21 51
e 21 54
e 21 56
e 21 63
e 21 65
e 21 66
e 21 69
e 21 70
e 21 74
e 21 78
e 21 79
e 21 80
e 21 84
e 21 85
e 22 24
e 22 25
e 22 28
e 22 31
e 22 32
e 22 33
e 22 35
e 22 43
e 22 44
e 22 45
e 22 46
e 22 59
e 22 61
e 22 67
e 22 68
e 22 70
e 22 74
e 22 75
e 22 84
e 23 26
e 23 27
e 23 30
e 23 34
e 23 39
e 23 48
e 23 49
e 23 59
e 23 63
e 23 70
e 23 72
e 23 73
e 23 81
e 24 27
e 24 29
e 24 41
e 24 44
e 24 45
e 24 51
e 24 63
e 24 64
e 24 67
e 24 70
e 24 78
e 24 83
e 24 85
e 25 26
e 25 31
e 25 32
e 25 36
e 25 42
e 25 44
e 25 55
e 25 57
e 25 60
e 25 64
e 25 68
e 25 72
e 25 74
e 25 77
e 25 79
e 26 28
e 26 29
e 26 30
e 26 33
e 26 36
e 26 37
e 26 41
e 26 43
e 26 47
e 26 54
e 26 56
e 26 58
e 26 59
e 26 61
e 26 69
e 26 74
e 26 78
e 26 82
e 26 84
e 27 29
e 27 30
e 27 31
e 27 38
e 27 40
e 27 45
e 27 48
e 27 53
e 27 54
e 27 59
e 27 62
e 27 67
e 27 68
e 27 70
e 27 72
e 27 73
e 27 75
e 27 77
e 27 83
e 28 34
e 28 38
e 28 39
e 28 41
e 28 42
e 28 43
e 28 47
e 28 52
e 28 58
e 28 63
e 28 64
e 28 71
e 28 77
e 28 80
e 28 81
e 28 85
e 29 34
e 29 36
e 29 37
e 29 50
e 29 52
e 29 55
e 29 61
e 29 62
e 29 65
e 29 81
e 29 83
e 29 85
e 30 32
e 30 37
e 30 40
e 30 45
e 30 52
e 30 55
e 30 58
e 30 62
e 30 64
e 30 66
e 30 73
e 31 36
e 31 40
e 31 46
e 31 51
e 31 53
e 31 60
e 31 64
e 31 70
e 31 73
e 31 74
e 31 79
e 31 81
e 31 84
e 32 36
e 32 39
e 32 43
e 32 46
e 32 58
e 32 59
e 32 61
e 32 65
e 32 67
e 32 68
e 32 74
e 32 76
e 32 78
e 33 39
e 33 40
e 33 44
e 33 55
e 33 58
e 33 60
e 33 61
e 33 63
e 33 67
e 33 74
e 33 78
e 33 80
e 33 81
e 33 83
e 33 84
e 34 35
e 34 36
e 34 38
e 34 39
e 34 43
e 34 44
e 34 45
e 34 49
e 34 51
e 34 55
e 34 62
e 34 64
e 34 65
e 34 68
e 34 69
e 34 71
e 34 72
e 34 76
e 34 79
e 35 42
e 35 43
e 35 55
e 35 60
e 35 64
e 35 68
e 35 71
e 35 74
e 35 76
e 35 80
e 35 82
e 35 85
e 36 37
e 36 38
e 36 41
e 36 49
e 36 50
e 36 54
e 36 60
e 36 67
e 36 71
e 36 84
e 36 85
e 37 39
e 37 42
e 37 46
e 37 47
e 37 50
e 37 53
e 37 59
e 37 60
e 37 61
e 37 64
e 37 69
e 37 75
e 37 77
e 37 78
e 38 40
e 38 43
e 38 45
e 38 50
e 38 51
e 38 52
e 38 56
e 38 57
e 38 65
e 38 66
e 38 73
e 38 79
e 38 83
e 39 40
e 39 45
e 39 52
e 39 54
e 39 56
e 39 64
e 39 66
e 39 69
e 39 74
e 39 84
e 40 44
e 40 45
e 40 48
e 40 49
e 40 60
e 40 64
e 40 67
e 40 72
e 40 76
e 40 79
e 40 81
e 40 82
e 41 45
e 41 58
e 41 59
e 41 61
e 41 63
e 41 64
e 41 65
e 41 67
e 41 72
e 41 76
e 41 79
e 42 44
e 42 46
e 42 47
e 42 53
e 42 56
e 42 59
e 42 60
e 42 74
e 42 76
e 42 82
e 43 45
e 43 46
e 43 51
e 43 52
e 43 53
e 43 58
e 43 61
e 43 70
e 43 78
e 43 80
e 44 45
e 44 55
e 44 60
e 44 62
e 44 63
e 44 64
e 44 69
e 44 72
e 44 73
e 44 76
e 44 83
e 45 46
e 45 48
e 45 50
e 45 59
e 45 60
e 45 61
e 45 63
e 45 65
e 45 66
e 45 67
e 45 82
e 45 85
e 46 51
e 46 53
e 46 57
e 46 59
e 46 64
e 46 65
e 46 66
e 46 69
e 46 74
e 46 78
e 46 80
e 47 49
e 47 52
e 47 57
e 47 58
e 47 60
e 47 61
e 47 66
e 47 67
e 47 69
e 47 72
e 47 83
e 47 84
e 47 85
e 48 52
e 48 54
e 48 59
e 48 63
e 48 69
e 48 70
e 48 73
e 48 80
e 48 81
e 49 53
e 49 54
e 49 57
e 49 63
e 49 67
e 49 73
e 49 84
e 50 52
e 50 60
e 50 62
e 50 63
e 50 64
e 50 65
e 50 66
e 50 71
e 50 72
e 50 76
e 51 54
e 51 56
e 51 58
e 51 59
e 51 60
e 51 62
e 51 63
e 51 67
e 51 72
e 51 75
e 51 76
e 51 78
e 52 58
e 52 71
e 52 76
e 52 81
e 52 84
e 53 54
e 53 56
e 53 60
e 53 61
e 53 62
e 53 63
e 53 64
e 53 65
e 53 69
e 53 72
e 53 74
e 53 84
e 54 58
e 54 60
e 54 64
e 54 65
e 54 84
e 55 67
e 55 75
e 55 77
e 55 79
e 56 69
e 56 77
e 56 78
e 56 79
e 56 80
e 56 81
e 56 82
e 57 58
e 57 61
e 57 66
e 57 67
e 57 77
e 58 60
e 58 63
e 58 66
e 58 68
e 58 70
e 58 77
e 58 81
e 58 83
e 59 60
e 59 66
e 59 68
e 59 69
e 59 72
e 59 73
e 59 75
e 59 79
e 59 82
e 60 61
e 60 68
e 60 78
e 61 66
e 61 68
e 61 72
e 61 80
e 62 63
e 62 67
e 62 70
e 62 71
e 62 72
e 62 78
e 62 85
e 63 67
e 63 71
e 63 72
e 63 74
e 63 80
e 64 68
e 64 78
e 64 79
e 65 66
e 65 73
e 65 79
e 65 83
e 66 67
e 66 70
e 66 76
e 66 82
e 67 68
e 67 69
e 67 72
e 67 73
e 67 74
e 67 75
e 67 76
e 67 78
e 67 82
e 67 85
e 68 72
e 68 74
e 68 78
e 68 83
e 68 84
e 69 72
e 69 81
e 69 82
e 69 85
e 70 76
e 70 82
e 71 72
e 71 73
e 71 77
e 71 78
e 71 85
e 72 74
e 72 75
e 72 77
e 72 78
e 72 79
e 72 81
e 72 82
e 72 83
e 73 74
e 73 75
e 73 80
e 74 75
e 74 77
e 74 81
e 74 82
e 74 84
e 75 79
e 75 82
e 75 85
e 76 79
e 76 83
e 77 81
e 78 79
e 78 83
e 78 85
e 80 85
e 81 82
e 81 84
e 82 83
e 83 85
e 84 85
